inputs/290.in
12
0 3 18 45 54 38 77 63 73 60 73 3 
3 0 91 67 96 23 17 30 67 20 4 26 
18 91 0 4 47 46 86 24 77 62 20 60 
45 67 4 0 50 25 70 84 25 35 97 22 
54 96 47 50 0 97 38 14 60 95 50 50 
38 23 46 25 97 0 61 9 54 37 86 3 
77 17 86 70 38 61 0 47 37 13 90 68 
63 30 24 84 14 9 47 0 46 92 18 3 
73 67 77 25 60 54 37 46 0 93 19 39 
60 20 62 35 95 37 13 92 93 0 89 56 
73 4 20 97 50 86 90 18 19 89 0 65 
3 26 60 22 50 3 68 3 39 56 65 0 
BBRBRBRBBRRR
