output/290.out
5 8 6 12 1 3 4 9 11 2 7 10 
